c RoundingSat 2
c branch HEAD
c commit c548e10
c #variables 32 #constraints 278
c #Conflicts:       1000 | #Constraints:       1277
c cpu time 0.018196 s
c deterministic time 1243807 1.24e+06
c optimization time 7e-06 s
c total solve time 0.017475 s
c core-guided solve time 0 s
c propagation time 0.009669 s
c conflict analysis time 0.006046 s
c propagations 15550
c resolve steps 5484
c decisions 1898
c conflicts 1428
c restarts 9
c inprocessing phases 0
c input clauses 277
c input cardinalities 1
c input general constraints 0
c input average constraint length 8.58
c input average constraint degree 1.08
c learned clauses 808
c learned cardinalities 259
c learned general constraints 361
c learned average constraint length 12.89
c learned average constraint degree 4.36
c watched constraints 150
c counting constraints 211
c gcd simplifications 35
c detected cardinalities 44
c weakened non-implied lits 7717
c weakened non-implying lits 10
c original variables 32
c clausal propagations 3827
c cardinality propagations 6637
c watched propagations 262
c counting propagations 2465
c watch lookups 386938
c watch backjump lookups 190766
c watch checks 444701
c propagation checks 105214
c constraint additions 79863
c trail pops 18876
c formula constraints 278
c learned constraints 1428
c bound constraints 0
c core-guided constraints 0
c encountered formula constraints 3106
c encountered learned constraints 3806
c encountered bound constraints 0
c encountered core-guided constraints 0
c LP total time 0 s
c LP solve time 0 s
c LP constraints added 0
c LP constraints removed 0
c LP pivots internal 0
c LP pivots root 0
c LP calls 0
c LP optimalities 0
c LP no pivot count 0
c LP infeasibilities 0
c LP valid Farkas constraints 0
c LP learned Farkas constraints 0
c LP basis resets 0
c LP cycling count 0
c LP singular count 0
c LP no primal count 0
c LP no farkas count 0
c LP other issue count 0
c LP Gomory cuts 0
c LP learned cuts 0
c LP deleted cuts 0
c LP encountered Gomory constraints 0
c LP encountered Farkas constraints 0
c LP encountered learned Farkas constraints 0
c CG auxiliary variables introduced 0
c CG solutions found 0
c CG cores constructed 0
c CG core cardinality constraints returned 0
c CG unit cores 0
c CG single cores 0
c CG blocks removed during cardinality reduction 0
c CG first core best 0
c CG decision core best 0
c CG core reduction tie 0
c CG core degree average 0.00
c CG core slack average 0.00
s SATISFIABLE
v -x1 -x2 x3 x4 -x5 -x6 -x7 -x8 -x9 x10 -x11 x12 -x13 -x14 -x15 x16 x17 -x18 -x19 -x20 x21 -x22 -x23 -x24 x25 -x26 x27 -x28 -x29 -x30 x31 -x32
